70
2411 1151
1610 2270
789 2440
2584 1699
2528 3006
275 852
2280 1849
3820 3535
3201 1228
691 2805
1945 2882
3451 3711
3064 3341
2910 1165
3275 3579
3648 64
2946 618
1688 3017
3094 2174
3341 1409
1295 3952
2557 2842
2597 393
131 854
1318 1519
58 2871
3511 1023
3325 438
1982 3772
2001 472
2560 2790
3878 2333
422 1295
1593 3931
3653 1194
1150 1515
2366 2757
1724 3874
3171 2809
2905 3778
2427 191
1751 466
2952 613
1631 1676
1799 1602
1374 2422
1464 646
1197 723
1663 1973
982 1466
2217 757
2291 1223
1075 2374
1720 3377
2664 3762
340 2972
873 3781
3893 655
3730 1151
2378 3433
987 2375
3820 3440
1212 898
2079 10
692 932
1205 2831
268 295
2197 574
727 474
1114 3696